c CNF file corresponding to a (partial) station packing problem.
p cnf 4937 229
1 2 3 4 5 6 7 8 9 10 11 12 13 14 0
-1 -2 0
-1 -3 0
-1 -4 0
-1 -5 0
-1 -6 0
-1 -7 0
-1 -8 0
-1 -9 0
-1 -10 0
-1 -11 0
-1 -12 0
-1 -13 0
-1 -14 0
-2 -3 0
-2 -4 0
-2 -5 0
-2 -6 0
-2 -7 0
-2 -8 0
-2 -9 0
-2 -10 0
-2 -11 0
-2 -12 0
-2 -13 0
-2 -14 0
-3 -4 0
-3 -5 0
-3 -6 0
-3 -7 0
-3 -8 0
-3 -9 0
-3 -10 0
-3 -11 0
-3 -12 0
-3 -13 0
-3 -14 0
-4 -5 0
-4 -6 0
-4 -7 0
-4 -8 0
-4 -9 0
-4 -10 0
-4 -11 0
-4 -12 0
-4 -13 0
-4 -14 0
-5 -6 0
-5 -7 0
-5 -8 0
-5 -9 0
-5 -10 0
-5 -11 0
-5 -12 0
-5 -13 0
-5 -14 0
-6 -7 0
-6 -8 0
-6 -9 0
-6 -10 0
-6 -11 0
-6 -12 0
-6 -13 0
-6 -14 0
-7 -8 0
-7 -9 0
-7 -10 0
-7 -11 0
-7 -12 0
-7 -13 0
-7 -14 0
-8 -9 0
-8 -10 0
-8 -11 0
-8 -12 0
-8 -13 0
-8 -14 0
-9 -10 0
-9 -11 0
-9 -12 0
-9 -13 0
-9 -14 0
-10 -11 0
-10 -12 0
-10 -13 0
-10 -14 0
-11 -12 0
-11 -13 0
-11 -14 0
-12 -13 0
-12 -14 0
-13 -14 0
4921 4922 4923 4924 4925 4926 4927 4928 4929 4930 4931 4932 4933 4934 4935 4936 4937 0
-4921 -4922 0
-4921 -4923 0
-4921 -4924 0
-4921 -4925 0
-4921 -4926 0
-4921 -4927 0
-4921 -4928 0
-4921 -4929 0
-4921 -4930 0
-4921 -4931 0
-4921 -4932 0
-4921 -4933 0
-4921 -4934 0
-4921 -4935 0
-4921 -4936 0
-4921 -4937 0
-4922 -4923 0
-4922 -4924 0
-4922 -4925 0
-4922 -4926 0
-4922 -4927 0
-4922 -4928 0
-4922 -4929 0
-4922 -4930 0
-4922 -4931 0
-4922 -4932 0
-4922 -4933 0
-4922 -4934 0
-4922 -4935 0
-4922 -4936 0
-4922 -4937 0
-4923 -4924 0
-4923 -4925 0
-4923 -4926 0
-4923 -4927 0
-4923 -4928 0
-4923 -4929 0
-4923 -4930 0
-4923 -4931 0
-4923 -4932 0
-4923 -4933 0
-4923 -4934 0
-4923 -4935 0
-4923 -4936 0
-4923 -4937 0
-4924 -4925 0
-4924 -4926 0
-4924 -4927 0
-4924 -4928 0
-4924 -4929 0
-4924 -4930 0
-4924 -4931 0
-4924 -4932 0
-4924 -4933 0
-4924 -4934 0
-4924 -4935 0
-4924 -4936 0
-4924 -4937 0
-4925 -4926 0
-4925 -4927 0
-4925 -4928 0
-4925 -4929 0
-4925 -4930 0
-4925 -4931 0
-4925 -4932 0
-4925 -4933 0
-4925 -4934 0
-4925 -4935 0
-4925 -4936 0
-4925 -4937 0
-4926 -4927 0
-4926 -4928 0
-4926 -4929 0
-4926 -4930 0
-4926 -4931 0
-4926 -4932 0
-4926 -4933 0
-4926 -4934 0
-4926 -4935 0
-4926 -4936 0
-4926 -4937 0
-4927 -4928 0
-4927 -4929 0
-4927 -4930 0
-4927 -4931 0
-4927 -4932 0
-4927 -4933 0
-4927 -4934 0
-4927 -4935 0
-4927 -4936 0
-4927 -4937 0
-4928 -4929 0
-4928 -4930 0
-4928 -4931 0
-4928 -4932 0
-4928 -4933 0
-4928 -4934 0
-4928 -4935 0
-4928 -4936 0
-4928 -4937 0
-4929 -4930 0
-4929 -4931 0
-4929 -4932 0
-4929 -4933 0
-4929 -4934 0
-4929 -4935 0
-4929 -4936 0
-4929 -4937 0
-4930 -4931 0
-4930 -4932 0
-4930 -4933 0
-4930 -4934 0
-4930 -4935 0
-4930 -4936 0
-4930 -4937 0
-4931 -4932 0
-4931 -4933 0
-4931 -4934 0
-4931 -4935 0
-4931 -4936 0
-4931 -4937 0
-4932 -4933 0
-4932 -4934 0
-4932 -4935 0
-4932 -4936 0
-4932 -4937 0
-4933 -4934 0
-4933 -4935 0
-4933 -4936 0
-4933 -4937 0
-4934 -4935 0
-4934 -4936 0
-4934 -4937 0
-4935 -4936 0
-4935 -4937 0
-4936 -4937 0
